100
32
24
10
20
9
21
18
23
31
7
18
2
4
10
20
28
30
19
5
26
16
4
7
7
32
27
8
1
10
9
18
5
19
1
7
7
8
26
1
8
14
20
13
18
8
7
15
24
4
31
12
26
19
22
1
3
8
1
11
9
1
8
15
10
15
24
15
17
10
12
10
18
14
3
6
15
19
8
3
8
22
6
8
7
19
2
5
9
2
3
29
9
27
17
15
19
4
12
6
5
22